10837109787630960 -1 0
h 2 3 4 0
5211965021905195 -5 0
h 6 -7 0
h 8 -9 0
1793555686833536 -10 0
1721769780901709 -6 0
h 11 -9 0
h 4 -12 0
h -13 14 0
h 15 8 0
3670498443051700 -16 0
h 5 13 0
h -4 -17 0
73919817256986 -18 0
4837905082105952 -19 0
h -20 21 0
h 20 4 22 0
9315576697850619 -23 0
5594862769708649 -22 0
h 1 24 0
h 25 -8 0
h 26 24 0
h -4 -27 0
h 17 14 0
h 16 -28 0
h 10 -15 29 0
1802812597350817 -21 0
5170240791423851 -30 0
5680038055384898 -2 0
h -3 7 0
h -3 30 0
h 23 13 31 0
h -24 -14 0
9046129479193631 -11 0
4986328447352701 -32 0
h 7 -29 0
h -3 2 -4 0
7500736264119221 -33 0
h -31 20 0
2623017927945643 -26 0
h -20 28 0
h 33 -14 3 0
h 12 -29 0
h 32 27 0
h 9 -20 0
6963009789026520 -25 0
h 19 8 0
